NAME          COPTPROB
OBJSENSE
  MIN
ROWS
 N  __OBJ___
 L  C0      
 L  C3      
 L  C5      
 L  C6      
 L  C7      
 L  C11     
 L  C12     
 L  C14     
 L  C16     
 L  C24     
 L  C25     
 L  C26     
 L  C28     
 L  C30     
 L  C32     
 L  C37     
 L  C41     
 L  C44     
 L  C47     
 L  C49     
 L  C50     
 L  C51     
 L  C53     
 L  C55     
 L  C58     
 L  C60     
 L  C66     
 L  C68     
 L  C69     
 L  C70     
 L  C71     
 L  C72     
 L  C75     
 L  C76     
 L  C78     
 L  C82     
 L  C84     
 L  C85     
 L  C88     
 L  C91     
 L  C92     
 L  C93     
 L  C94     
 L  C95     
 L  C96     
 L  C97     
 L  C100    
 L  C103    
 L  C105    
 L  C112    
 L  C119    
 L  C127    
 L  C132    
 L  C134    
 L  C136    
 L  C137    
 L  C138    
 L  C139    
 L  C142    
 L  C143    
 L  C144    
 L  C158    
 L  C159    
 L  C171    
 L  C172    
 L  C174    
 L  C175    
 L  C176    
 L  C178    
 L  C183    
 L  C184    
 L  C190    
 L  C191    
 L  C196    
 L  C199    
 L  C203    
 L  C210    
 L  C217    
 L  C218    
 L  C219    
 L  C223    
 L  C224    
 L  C225    
 L  C228    
 L  C238    
 L  C239    
 L  C240    
 L  C241    
 L  C245    
 L  C248    
 L  C250    
 L  C252    
 L  C254    
 L  C255    
 L  C260    
 L  C261    
 L  C262    
 L  C265    
 L  C267    
 L  C279    
 L  C280    
 L  C284    
 L  C289    
 L  C290    
 L  C292    
 L  C293    
 L  C302    
 L  C307    
 L  C309    
 L  C312    
 L  C314    
 L  C317    
 L  C327    
 L  C328    
 L  C334    
 L  C338    
 L  C342    
 L  C343    
 L  C348    
 L  C353    
 L  C354    
 L  C356    
 L  C360    
 L  C362    
 L  C363    
 L  C368    
 L  C370    
 L  C373    
 L  C375    
 L  C384    
 L  C388    
 L  C389    
 L  C394    
 L  C395    
 L  C396    
 L  C399    
COLUMNS
    MARKER    'MARKER'                 'INTORG'
    x1        __OBJ___  802
    x1        C217      -1
    x1        C317      -1
    x2        __OBJ___  23
    x2        C97       -1
    x2        C219      -1
    x3        __OBJ___  742
    x3        C76       -1
    x3        C348      -1
    x3        C396      -1
    x4        __OBJ___  450
    x4        C3        -1
    x4        C7        -1
    x4        C49       -1
    x4        C292      -1
    x5        __OBJ___  411
    x5        C94       -1
    x5        C139      -1
    x5        C172      -1
    x5        C342      -1
    x8        __OBJ___  644
    x8        C30       -1
    x8        C174      -1
    x8        C196      -1
    x10       __OBJ___  476
    x10       C262      -1
    x10       C307      -1
    x10       C389      -1
    x12       __OBJ___  302
    x12       C72       -1
    x12       C370      -1
    x13       __OBJ___  173
    x13       C136      -1
    x13       C225      -1
    x13       C375      -1
    x14       __OBJ___  457
    x14       C37       -1
    x14       C50       -1
    x14       C260      -1
    x14       C328      -1
    x14       C356      -1
    x21       __OBJ___  159
    x21       C293      -1
    x21       C334      -1
    x21       C362      -1
    x22       __OBJ___  266
    x22       C5        -1
    x22       C88       -1
    x22       C183      -1
    x22       C255      -1
    x25       __OBJ___  301
    x25       C238      -1
    x25       C360      -1
    x28       __OBJ___  441
    x28       C44       -1
    x28       C176      -1
    x29       __OBJ___  632
    x29       C105      -1
    x29       C395      -1
    x34       __OBJ___  118
    x34       C60       -1
    x37       __OBJ___  314
    x37       C68       -1
    x37       C338      -1
    x38       __OBJ___  251
    x38       C75       -1
    x38       C250      -1
    x41       __OBJ___  304
    x41       C58       -1
    x41       C190      -1
    x45       __OBJ___  744
    x45       C41       -1
    x45       C127      -1
    x45       C245      -1
    x45       C254      -1
    x46       __OBJ___  373
    x46       C69       -1
    x46       C290      -1
    x47       __OBJ___  694
    x47       C28       -1
    x47       C142      -1
    x47       C144      -1
    x55       __OBJ___  774
    x55       C223      -1
    x55       C228      -1
    x55       C267      -1
    x55       C284      -1
    x55       C354      -1
    x55       C363      -1
    x57       __OBJ___  524
    x57       C14       -1
    x57       C85       -1
    x57       C119      -1
    x57       C199      -1
    x61       __OBJ___  353
    x61       C16       -1
    x61       C53       -1
    x61       C82       -1
    x61       C327      -1
    x62       __OBJ___  684
    x62       C0        -1
    x62       C92       -1
    x62       C252      -1
    x64       __OBJ___  970
    x64       C95       -1
    x64       C239      -1
    x64       C265      -1
    x68       __OBJ___  709
    x68       C171      -1
    x68       C240      -1
    x68       C289      -1
    x70       __OBJ___  430
    x70       C32       -1
    x70       C55       -1
    x70       C178      -1
    x72       __OBJ___  490
    x72       C24       -1
    x72       C84       -1
    x72       C137      -1
    x73       __OBJ___  834
    x73       C6        -1
    x73       C78       -1
    x73       C143      -1
    x74       __OBJ___  847
    x74       C71       -1
    x74       C112      -1
    x74       C132      -1
    x74       C224      -1
    x75       __OBJ___  390
    x75       C159      -1
    x75       C191      -1
    x79       __OBJ___  758
    x79       C103      -1
    x79       C302      -1
    x79       C309      -1
    x82       __OBJ___  567
    x82       C26       -1
    x82       C175      -1
    x82       C280      -1
    x82       C399      -1
    x92       __OBJ___  302
    x92       C11       -1
    x92       C100      -1
    x93       __OBJ___  847
    x93       C279      -1
    x93       C368      -1
    x93       C373      -1
    x93       C388      -1
    x103      __OBJ___  410
    x103      C127      -1
    x106      __OBJ___  8
    x106      C139      -1
    x110      __OBJ___  857
    x110      C199      -1
    x110      C248      -1
    x110      C317      -1
    x115      __OBJ___  269
    x115      C267      -1
    x115      C284      -1
    x115      C342      -1
    x120      __OBJ___  122
    x120      C25       -1
    x120      C389      -1
    x126      __OBJ___  264
    x126      C93       -1
    x126      C191      -1
    x126      C327      -1
    x130      __OBJ___  761
    x130      C53       -1
    x130      C105      -1
    x130      C363      -1
    x132      __OBJ___  767
    x132      C76       -1
    x132      C210      -1
    x132      C368      -1
    x134      __OBJ___  765
    x134      C228      -1
    x134      C280      -1
    x137      __OBJ___  125
    x137      C327      -1
    x137      C373      -1
    x138      __OBJ___  131
    x138      C30       -1
    x138      C184      -1
    x138      C223      -1
    x139      __OBJ___  18
    x139      C138      -1
    x139      C255      -1
    x139      C384      -1
    x142      __OBJ___  130
    x142      C82       -1
    x143      __OBJ___  276
    x143      C203      -1
    x143      C267      -1
    x143      C343      -1
    x147      __OBJ___  138
    x147      C6        -1
    x147      C139      -1
    x148      __OBJ___  766
    x148      C32       -1
    x148      C49       -1
    x148      C70       -1
    x148      C183      -1
    x149      __OBJ___  399
    x149      C28       -1
    x149      C174      -1
    x149      C218      -1
    x149      C241      -1
    x157      __OBJ___  203
    x157      C171      -1
    x157      C250      -1
    x157      C373      -1
    x160      __OBJ___  8
    x160      C267      -1
    x160      C312      -1
    x161      __OBJ___  829
    x161      C50       -1
    x161      C265      -1
    x162      __OBJ___  351
    x162      C51       -1
    x162      C68       -1
    x162      C69       -1
    x162      C338      -1
    x162      C353      -1
    x163      __OBJ___  801
    x163      C82       -1
    x163      C103      -1
    x163      C119      -1
    x163      C384      -1
    x164      __OBJ___  54
    x164      C44       -1
    x164      C158      -1
    x164      C184      -1
    x164      C248      -1
    x164      C309      -1
    x164      C370      -1
    x167      __OBJ___  215
    x167      C84       -1
    x167      C343      -1
    x167      C395      -1
    x169      __OBJ___  95
    x169      C41       -1
    x169      C96       -1
    x169      C373      -1
    x170      __OBJ___  406
    x170      C51       -1
    x170      C354      -1
    x171      __OBJ___  630
    x171      C68       -1
    x171      C76       -1
    x176      __OBJ___  447
    x176      C82       -1
    x176      C91       -1
    x178      __OBJ___  223
    x178      C3        -1
    x178      C88       -1
    x178      C373      -1
    x180      __OBJ___  173
    x180      C58       -1
    x184      __OBJ___  28
    x184      C210      -1
    x184      C290      -1
    x185      __OBJ___  346
    x185      C100      -1
    x185      C191      -1
    x185      C219      -1
    x186      __OBJ___  107
    x186      C280      -1
    x187      __OBJ___  795
    x187      C105      -1
    x187      C290      -1
    x187      C356      -1
    x188      __OBJ___  990
    x188      C12       -1
    x188      C218      -1
    x188      C356      -1
    x188      C388      -1
    x192      __OBJ___  215
    x192      C12       -1
    x192      C53       -1
    x192      C96       -1
    x198      __OBJ___  123
    x198      C70       -1
    x198      C138      -1
    x200      __OBJ___  581
    x200      C0        -1
    x200      C175      -1
    x200      C260      -1
    x200      C262      -1
    x202      __OBJ___  608
    x202      C348      -1
    x202      C373      -1
    x202      C399      -1
    x205      __OBJ___  673
    x205      C91       -1
    x205      C252      -1
    x205      C368      -1
    x206      __OBJ___  34
    x206      C51       -1
    x206      C96       -1
    x211      __OBJ___  398
    x211      C66       -1
    x211      C159      -1
    x211      C261      -1
    x212      __OBJ___  326
    x212      C137      -1
    x212      C224      -1
    x213      __OBJ___  830
    x213      C144      -1
    x213      C196      -1
    x213      C203      -1
    x214      __OBJ___  554
    x214      C127      -1
    x214      C289      -1
    x218      __OBJ___  795
    x218      C92       -1
    x218      C217      -1
    x218      C262      -1
    x220      __OBJ___  334
    x220      C103      -1
    x220      C290      -1
    x220      C314      -1
    x220      C353      -1
    x224      __OBJ___  743
    x224      C75       -1
    x224      C142      -1
    x224      C279      -1
    x224      C368      -1
    x229      __OBJ___  451
    x229      C58       -1
    x229      C199      -1
    x229      C203      -1
    x229      C363      -1
    x230      __OBJ___  65
    x230      C144      -1
    x231      __OBJ___  390
    x231      C25       -1
    x231      C224      -1
    x231      C396      -1
    x234      __OBJ___  794
    x234      C0        -1
    x234      C368      -1
    x235      __OBJ___  86
    x235      C95       -1
    x240      __OBJ___  273
    x240      C95       -1
    x240      C328      -1
    x241      __OBJ___  67
    x241      C245      -1
    x241      C370      -1
    x242      __OBJ___  513
    x242      C55       -1
    x242      C354      -1
    x244      __OBJ___  103
    x244      C5        -1
    x244      C11       -1
    x244      C26       -1
    x247      __OBJ___  607
    x247      C32       -1
    x247      C37       -1
    x248      __OBJ___  165
    x248      C93       -1
    x248      C138      -1
    x248      C343      -1
    x249      __OBJ___  889
    x249      C97       -1
    x249      C143      -1
    x249      C190      -1
    x252      __OBJ___  396
    x252      C91       -1
    x253      __OBJ___  403
    x253      C159      -1
    x253      C254      -1
    x253      C284      -1
    x260      __OBJ___  509
    x260      C16       -1
    x260      C37       -1
    x260      C112      -1
    x260      C134      -1
    x263      __OBJ___  677
    x263      C5        -1
    x263      C60       -1
    x263      C76       -1
    x263      C158      -1
    x268      __OBJ___  858
    x268      C241      -1
    x268      C368      -1
    x269      __OBJ___  973
    x269      C30       -1
    x269      C239      -1
    x269      C240      -1
    x271      __OBJ___  116
    x271      C360      -1
    x276      __OBJ___  127
    x276      C175      -1
    x282      __OBJ___  102
    x282      C292      -1
    x284      __OBJ___  255
    x284      C55       -1
    x284      C240      -1
    x284      C343      -1
    x288      __OBJ___  30
    x288      C7        -1
    x288      C338      -1
    x291      __OBJ___  527
    x291      C14       -1
    x291      C314      -1
    x291      C384      -1
    x294      __OBJ___  327
    x294      C103      -1
    x294      C225      -1
    x294      C240      -1
    x295      __OBJ___  392
    x295      C69       -1
    x295      C248      -1
    x295      C302      -1
    x295      C312      -1
    x296      __OBJ___  355
    x296      C78       -1
    x296      C172      -1
    x297      __OBJ___  498
    x297      C218      -1
    x297      C394      -1
    x300      __OBJ___  517
    x300      C127      -1
    x300      C223      -1
    x300      C292      -1
    x305      __OBJ___  359
    x305      C24       -1
    x305      C362      -1
    x308      __OBJ___  141
    x308      C0        -1
    x308      C240      -1
    x310      __OBJ___  347
    x310      C136      -1
    x310      C138      -1
    x310      C178      -1
    x310      C262      -1
    x310      C395      -1
    x312      __OBJ___  214
    x312      C199      -1
    x313      __OBJ___  106
    x313      C191      -1
    x319      __OBJ___  11
    x319      C384      -1
    x324      __OBJ___  626
    x324      C132      -1
    x324      C175      -1
    x324      C260      -1
    x324      C334      -1
    x326      __OBJ___  699
    x326      C16       -1
    x326      C394      -1
    x332      __OBJ___  739
    x332      C30       -1
    x332      C317      -1
    x344      __OBJ___  850
    x344      C262      -1
    x344      C292      -1
    x344      C354      -1
    x346      __OBJ___  232
    x346      C47       -1
    x346      C66       -1
    x350      __OBJ___  75
    x350      C71       -1
    x350      C373      -1
    x351      __OBJ___  113
    x351      C327      -1
    x354      __OBJ___  358
    x354      C137      -1
    x354      C292      -1
    x354      C360      -1
    x361      __OBJ___  962
    x361      C176      -1
    x361      C238      -1
    x361      C353      -1
    x365      __OBJ___  25
    x365      C112      -1
    x369      __OBJ___  271
    x369      C279      -1
    x375      __OBJ___  376
    x375      C32       -1
    x375      C60       -1
    x375      C225      -1
    x376      __OBJ___  103
    x376      C84       -1
    x376      C290      -1
    x377      __OBJ___  612
    x377      C88       -1
    x377      C262      -1
    x377      C375      -1
    x381      __OBJ___  53
    x381      C47       -1
    x381      C174      -1
    x381      C260      -1
    x383      __OBJ___  346
    x383      C85       -1
    x383      C396      -1
    x391      __OBJ___  210
    x391      C94       -1
    x391      C293      -1
    x393      __OBJ___  64
    x393      C134      -1
    x393      C252      -1
    x393      C261      -1
    x393      C307      -1
    x395      __OBJ___  315
    x395      C72       -1
    x395      C139      -1
    x395      C175      -1
    x395      C267      -1
    x398      __OBJ___  976
    x398      C76       -1
    x398      C138      -1
    x398      C241      -1
    x398      C248      -1
    x400      __OBJ___  898
    x400      C25       -1
    x400      C100      -1
    x400      C143      -1
    MARKER    'MARKER'                 'INTEND'
RHS
    RHS       __OBJ___  -20350
    RHS       C0        -1
    RHS       C3        -1
    RHS       C5        -1
    RHS       C6        -1
    RHS       C7        -1
    RHS       C11       -1
    RHS       C12       -1
    RHS       C14       -1
    RHS       C16       -1
    RHS       C24       -1
    RHS       C25       -1
    RHS       C26       -1
    RHS       C28       -1
    RHS       C30       -1
    RHS       C32       -1
    RHS       C37       -1
    RHS       C41       -1
    RHS       C44       -1
    RHS       C47       -1
    RHS       C49       -1
    RHS       C50       -1
    RHS       C51       -1
    RHS       C53       -1
    RHS       C55       -1
    RHS       C58       -1
    RHS       C60       -1
    RHS       C66       -1
    RHS       C68       -1
    RHS       C69       -1
    RHS       C70       -1
    RHS       C71       -1
    RHS       C72       -1
    RHS       C75       -1
    RHS       C76       -1
    RHS       C78       -1
    RHS       C82       -1
    RHS       C84       -1
    RHS       C85       -1
    RHS       C88       -1
    RHS       C91       -1
    RHS       C92       -1
    RHS       C93       -1
    RHS       C94       -1
    RHS       C95       -1
    RHS       C96       -1
    RHS       C97       -1
    RHS       C100      -1
    RHS       C103      -1
    RHS       C105      -1
    RHS       C112      -1
    RHS       C119      -1
    RHS       C127      -1
    RHS       C132      -1
    RHS       C134      -1
    RHS       C136      -1
    RHS       C137      -1
    RHS       C138      -1
    RHS       C139      -1
    RHS       C142      -1
    RHS       C143      -1
    RHS       C144      -1
    RHS       C158      -1
    RHS       C159      -1
    RHS       C171      -1
    RHS       C172      -1
    RHS       C174      -1
    RHS       C175      -1
    RHS       C176      -1
    RHS       C178      -1
    RHS       C183      -1
    RHS       C184      -1
    RHS       C190      -1
    RHS       C191      -1
    RHS       C196      -1
    RHS       C199      -1
    RHS       C203      -1
    RHS       C210      -1
    RHS       C217      -1
    RHS       C218      -1
    RHS       C219      -1
    RHS       C223      -1
    RHS       C224      -1
    RHS       C225      -1
    RHS       C228      -1
    RHS       C238      -1
    RHS       C239      -1
    RHS       C240      -1
    RHS       C241      -1
    RHS       C245      -1
    RHS       C248      -1
    RHS       C250      -1
    RHS       C252      -1
    RHS       C254      -1
    RHS       C255      -1
    RHS       C260      -1
    RHS       C261      -1
    RHS       C262      -1
    RHS       C265      -1
    RHS       C267      -1
    RHS       C279      -1
    RHS       C280      -1
    RHS       C284      -1
    RHS       C289      -1
    RHS       C290      -1
    RHS       C292      -1
    RHS       C293      -1
    RHS       C302      -1
    RHS       C307      -1
    RHS       C309      -1
    RHS       C312      -1
    RHS       C314      -1
    RHS       C317      -1
    RHS       C327      -1
    RHS       C328      -1
    RHS       C334      -1
    RHS       C338      -1
    RHS       C342      -1
    RHS       C343      -1
    RHS       C348      -1
    RHS       C353      -1
    RHS       C354      -1
    RHS       C356      -1
    RHS       C360      -1
    RHS       C362      -1
    RHS       C363      -1
    RHS       C368      -1
    RHS       C370      -1
    RHS       C373      -1
    RHS       C375      -1
    RHS       C384      -1
    RHS       C388      -1
    RHS       C389      -1
    RHS       C394      -1
    RHS       C395      -1
    RHS       C396      -1
    RHS       C399      -1
BOUNDS
 UP BOUND     x1        1
 UP BOUND     x2        1
 UP BOUND     x3        1
 UP BOUND     x4        1
 UP BOUND     x5        1
 UP BOUND     x8        1
 UP BOUND     x10       1
 UP BOUND     x12       1
 UP BOUND     x13       1
 UP BOUND     x14       1
 UP BOUND     x21       1
 UP BOUND     x22       1
 UP BOUND     x25       1
 UP BOUND     x28       1
 UP BOUND     x29       1
 UP BOUND     x34       1
 UP BOUND     x37       1
 UP BOUND     x38       1
 UP BOUND     x41       1
 UP BOUND     x45       1
 UP BOUND     x46       1
 UP BOUND     x47       1
 UP BOUND     x55       1
 UP BOUND     x57       1
 UP BOUND     x61       1
 UP BOUND     x62       1
 UP BOUND     x64       1
 UP BOUND     x68       1
 UP BOUND     x70       1
 UP BOUND     x72       1
 UP BOUND     x73       1
 UP BOUND     x74       1
 UP BOUND     x75       1
 UP BOUND     x79       1
 UP BOUND     x82       1
 UP BOUND     x92       1
 UP BOUND     x93       1
 UP BOUND     x103      1
 UP BOUND     x106      1
 UP BOUND     x110      1
 UP BOUND     x115      1
 UP BOUND     x120      1
 UP BOUND     x126      1
 UP BOUND     x130      1
 UP BOUND     x132      1
 UP BOUND     x134      1
 UP BOUND     x137      1
 UP BOUND     x138      1
 UP BOUND     x139      1
 UP BOUND     x142      1
 UP BOUND     x143      1
 UP BOUND     x147      1
 UP BOUND     x148      1
 UP BOUND     x149      1
 UP BOUND     x157      1
 UP BOUND     x160      1
 UP BOUND     x161      1
 UP BOUND     x162      1
 UP BOUND     x163      1
 UP BOUND     x164      1
 UP BOUND     x167      1
 UP BOUND     x169      1
 UP BOUND     x170      1
 UP BOUND     x171      1
 UP BOUND     x176      1
 UP BOUND     x178      1
 UP BOUND     x180      1
 UP BOUND     x184      1
 UP BOUND     x185      1
 UP BOUND     x186      1
 UP BOUND     x187      1
 UP BOUND     x188      1
 UP BOUND     x192      1
 UP BOUND     x198      1
 UP BOUND     x200      1
 UP BOUND     x202      1
 UP BOUND     x205      1
 UP BOUND     x206      1
 UP BOUND     x211      1
 UP BOUND     x212      1
 UP BOUND     x213      1
 UP BOUND     x214      1
 UP BOUND     x218      1
 UP BOUND     x220      1
 UP BOUND     x224      1
 UP BOUND     x229      1
 UP BOUND     x230      1
 UP BOUND     x231      1
 UP BOUND     x234      1
 UP BOUND     x235      1
 UP BOUND     x240      1
 UP BOUND     x241      1
 UP BOUND     x242      1
 UP BOUND     x244      1
 UP BOUND     x247      1
 UP BOUND     x248      1
 UP BOUND     x249      1
 UP BOUND     x252      1
 UP BOUND     x253      1
 UP BOUND     x260      1
 UP BOUND     x263      1
 UP BOUND     x268      1
 UP BOUND     x269      1
 UP BOUND     x271      1
 UP BOUND     x276      1
 UP BOUND     x282      1
 UP BOUND     x284      1
 UP BOUND     x288      1
 UP BOUND     x291      1
 UP BOUND     x294      1
 UP BOUND     x295      1
 UP BOUND     x296      1
 UP BOUND     x297      1
 UP BOUND     x300      1
 UP BOUND     x305      1
 UP BOUND     x308      1
 UP BOUND     x310      1
 UP BOUND     x312      1
 UP BOUND     x313      1
 UP BOUND     x319      1
 UP BOUND     x324      1
 UP BOUND     x326      1
 UP BOUND     x332      1
 UP BOUND     x344      1
 UP BOUND     x346      1
 UP BOUND     x350      1
 UP BOUND     x351      1
 UP BOUND     x354      1
 UP BOUND     x361      1
 UP BOUND     x365      1
 UP BOUND     x369      1
 UP BOUND     x375      1
 UP BOUND     x376      1
 UP BOUND     x377      1
 UP BOUND     x381      1
 UP BOUND     x383      1
 UP BOUND     x391      1
 UP BOUND     x393      1
 UP BOUND     x395      1
 UP BOUND     x398      1
 UP BOUND     x400      1
ENDATA
